language Essence 1.3

letting course_load be
        function(1 --> 4, 2 --> 7, 3 --> 4, 4 --> 4, 5 --> 7, 6 --> 4, 7 --> 4, 8 --> 4, 9 --> 4, 10 --> 25, 11 --> 4,
                 12 --> 4, 13 --> 4, 14 --> 4, 15 --> 4, 16 --> 4, 17 --> 5, 18 --> 4, 19 --> 4, 20 --> 4, 21 --> 4,
                 22 --> 4, 23 --> 4, 24 --> 4, 25 --> 8, 26 --> 4, 27 --> 4, 28 --> 4, 29 --> 4, 30 --> 4, 31 --> 4,
                 32 --> 4, 33 --> 4, 34 --> 4, 35 --> 4, 36 --> 4, 37 --> 4, 38 --> 4, 39 --> 4, 40 --> 4, 41 --> 4,
                 42 --> 4, 43 --> 4, 44 --> 4, 45 --> 4, 46 --> 4, 47 --> 4)
letting courses_per_period_lb be 8
letting courses_per_period_ub be 31
letting level be
        function(1 --> 1, 2 --> 1, 3 --> 3, 4 --> 1, 5 --> 1, 6 --> 2, 7 --> 1, 8 --> 3, 9 --> 3, 10 --> 1, 11 --> 1,
                 12 --> 3, 13 --> 1, 14 --> 2, 15 --> 3, 16 --> 3, 17 --> 2, 18 --> 3, 19 --> 1, 20 --> 2, 21 --> 3,
                 22 --> 1, 23 --> 1, 24 --> 3, 25 --> 2, 26 --> 1, 27 --> 1, 28 --> 1, 29 --> 3, 30 --> 2, 31 --> 1,
                 32 --> 1, 33 --> 3, 34 --> 1, 35 --> 3, 36 --> 2, 37 --> 3, 38 --> 1, 39 --> 1, 40 --> 2, 41 --> 2,
                 42 --> 3, 43 --> 1, 44 --> 2, 45 --> 3, 46 --> 2, 47 --> 1)
letting load_per_period_lb be 34
letting load_per_period_ub be 44
letting n_courses be 47
letting n_periods be 5
letting prerequisite be
        relation((2, 29), (2, 30), (4, 29), (4, 35), (4, 37), (5, 29), (5, 33), (5, 35), (5, 36), (5, 37), (6, 29),
                 (6, 35), (6, 37), (7, 33), (7, 35), (7, 36), (10, 29), (10, 30), (10, 33), (10, 35), (10, 36),
                 (10, 37), (11, 33))
$ Visualisation for prerequisite
$  2 29
$  2 30
$  4 29
$  4 35
$  4 37
$  5 29
$  5 33
$  5 35
$  5 36
$  5 37
$  6 29
$  6 35
$  6 37
$  7 33
$  7 35
$  7 36
$ 10 29
$ 10 30
$ 10 33
$ 10 35
$ 10 36
$ 10 37
$ 11 33

